z1,z2,z3,nondominated
9,6,5,0
7,5,7,0
9,6,4,0
2,8,5,0
5,5,6,0
4,9,2,0
6,7,5,0
6,5,4,0
9,3,1,0
7,8,9,0
6,4,3,0
6,10,7,0
6,7,2,0
2,10,10,0
1,1,7,0
9,2,8,0
9,7,4,0
1,3,6,0
4,8,4,0
2,9,6,0
2,4,7,0
5,9,9,0
10,6,3,0
8,9,9,0
9,2,2,0
1,10,10,0
4,8,9,0
10,2,7,0
6,1,8,0
2,5,5,0
2,1,1,0
5,9,8,0
5,4,3,0
7,6,1,0
2,2,1,0
7,9,7,0
8,5,3,0
5,1,6,0
3,1,6,0
1,4,5,0
2,9,1,0
6,1,5,0
1,9,1,0
8,6,3,0
10,3,6,0
6,5,4,0
2,4,5,0
3,2,5,0
2,7,4,0
1,1,1,0
1,1,1,0
1,1,1,0
1,1,1,0
1,1,1,0
1,1,1,0
1,1,1,0
